c Generated map
c Size: 13 * 13, weights in range: 1 to 10, walls: True, with ratio 0.2
c dim 3 of 3
c
p sp 169 196
c graph contains 169 nodes and 196 arcs
c
a 1 14 2
a 14 1 2
a 1 2 7
a 2 1 7
a 2 15 3
a 15 2 3
a 4 17 6
a 17 4 6
a 6 19 2
a 19 6 2
a 8 21 3
a 21 8 3
a 8 9 5
a 9 8 5
a 9 22 5
a 22 9 5
a 9 10 5
a 10 9 5
a 10 11 3
a 11 10 3
a 11 24 6
a 24 11 6
a 11 12 3
a 12 11 3
a 12 25 10
a 25 12 10
a 14 27 2
a 27 14 2
a 14 15 6
a 15 14 6
a 15 28 7
a 28 15 7
a 15 16 9
a 16 15 9
a 16 17 6
a 17 16 6
a 17 30 5
a 30 17 5
a 17 18 8
a 18 17 8
a 18 31 5
a 31 18 5
a 18 19 8
a 19 18 8
a 19 32 1
a 32 19 1
a 19 20 9
a 20 19 9
a 20 21 6
a 21 20 6
a 21 34 6
a 34 21 6
a 21 22 2
a 22 21 2
a 24 37 10
a 37 24 10
a 24 25 2
a 25 24 2
a 25 26 9
a 26 25 9
a 26 39 8
a 39 26 8
a 27 40 4
a 40 27 4
a 27 28 7
a 28 27 7
a 28 41 7
a 41 28 7
a 30 43 5
a 43 30 5
a 30 31 9
a 31 30 9
a 31 32 1
a 32 31 1
a 32 45 2
a 45 32 2
a 34 47 7
a 47 34 7
a 36 49 8
a 49 36 8
a 36 37 10
a 37 36 10
a 39 52 4
a 52 39 4
a 40 53 1
a 53 40 1
a 40 41 2
a 41 40 2
a 41 54 4
a 54 41 4
a 41 42 6
a 42 41 6
a 42 55 3
a 55 42 3
a 42 43 1
a 43 42 1
a 43 56 10
a 56 43 10
a 45 58 3
a 58 45 3
a 45 46 4
a 46 45 4
a 46 59 4
a 59 46 4
a 46 47 7
a 47 46 7
a 47 48 1
a 48 47 1
a 48 61 2
a 61 48 2
a 48 49 6
a 49 48 6
a 51 64 2
a 64 51 2
a 51 52 8
a 52 51 8
a 53 66 4
a 66 53 4
a 53 54 2
a 54 53 2
a 54 55 8
a 55 54 8
a 55 68 2
a 68 55 2
a 55 56 6
a 56 55 6
a 56 69 3
a 69 56 3
a 58 71 4
a 71 58 4
a 58 59 2
a 59 58 2
a 59 72 1
a 72 59 1
a 61 74 1
a 74 61 1
a 63 76 8
a 76 63 8
a 63 64 4
a 64 63 4
a 64 77 6
a 77 64 6
a 66 79 4
a 79 66 4
a 68 81 5
a 81 68 5
a 68 69 1
a 69 68 1
a 71 84 10
a 84 71 10
a 71 72 8
a 72 71 8
a 72 85 3
a 85 72 3
a 76 89 6
a 89 76 6
a 76 77 10
a 77 76 10
a 77 90 3
a 90 77 3
a 77 78 9
a 78 77 9
a 78 91 1
a 91 78 1
a 79 80 4
a 80 79 4
a 80 93 8
a 93 80 8
a 80 81 2
a 81 80 2
a 84 97 7
a 97 84 7
a 84 85 8
a 85 84 8
a 85 98 2
a 98 85 2
a 85 86 9
a 86 85 9
a 86 99 1
a 99 86 1
a 88 101 7
a 101 88 7
a 88 89 3
a 89 88 3
a 89 90 5
a 90 89 5
a 90 103 8
a 103 90 8
a 90 91 9
a 91 90 9
a 93 106 4
a 106 93 4
a 95 96 8
a 96 95 8
a 96 109 5
a 109 96 5
a 96 97 9
a 97 96 9
a 97 110 8
a 110 97 8
a 97 98 3
a 98 97 3
a 98 111 1
a 111 98 1
a 98 99 6
a 99 98 6
a 101 114 6
a 114 101 6
a 103 116 6
a 116 103 6
a 105 118 10
a 118 105 10
a 105 106 2
a 106 105 2
a 106 119 7
a 119 106 7
a 106 107 1
a 107 106 1
a 107 120 7
a 120 107 7
a 109 110 9
a 110 109 9
a 110 123 9
a 123 110 9
a 110 111 5
a 111 110 5
a 111 124 5
a 124 111 5
a 113 126 2
a 126 113 2
a 113 114 2
a 114 113 2
a 114 127 10
a 127 114 10
a 114 115 9
a 115 114 9
a 115 128 6
a 128 115 6
a 115 116 10
a 116 115 10
a 116 129 1
a 129 116 1
a 116 117 9
a 117 116 9
a 117 130 3
a 130 117 3
a 118 131 10
a 131 118 10
a 118 119 10
a 119 118 10
a 119 132 6
a 132 119 6
a 119 120 9
a 120 119 9
a 120 133 8
a 133 120 8
a 120 121 4
a 121 120 4
a 121 134 9
a 134 121 9
a 123 136 4
a 136 123 4
a 123 124 8
a 124 123 8
a 124 137 9
a 137 124 9
a 124 125 3
a 125 124 3
a 125 138 4
a 138 125 4
a 125 126 4
a 126 125 4
a 126 139 9
a 139 126 9
a 126 127 4
a 127 126 4
a 127 140 7
a 140 127 7
a 127 128 4
a 128 127 4
a 128 141 3
a 141 128 3
a 128 129 6
a 129 128 6
a 129 142 4
a 142 129 4
a 129 130 3
a 130 129 3
a 130 143 8
a 143 130 8
a 131 132 1
a 132 131 1
a 132 145 6
a 145 132 6
a 132 133 4
a 133 132 4
a 133 146 10
a 146 133 10
a 133 134 2
a 134 133 2
a 134 147 9
a 147 134 9
a 134 135 7
a 135 134 7
a 135 148 7
a 148 135 7
a 135 136 9
a 136 135 9
a 136 149 1
a 149 136 1
a 136 137 1
a 137 136 1
a 137 150 10
a 150 137 10
a 137 138 6
a 138 137 6
a 138 151 10
a 151 138 10
a 138 139 2
a 139 138 2
a 139 152 3
a 152 139 3
a 139 140 7
a 140 139 7
a 140 153 9
a 153 140 9
a 140 141 1
a 141 140 1
a 141 154 10
a 154 141 10
a 141 142 9
a 142 141 9
a 142 155 9
a 155 142 9
a 142 143 1
a 143 142 1
a 143 156 9
a 156 143 9
a 145 158 5
a 158 145 5
a 145 146 3
a 146 145 3
a 146 159 9
a 159 146 9
a 146 147 4
a 147 146 4
a 147 160 5
a 160 147 5
a 147 148 3
a 148 147 3
a 148 161 9
a 161 148 9
a 148 149 9
a 149 148 9
a 149 162 7
a 162 149 7
a 149 150 1
a 150 149 1
a 150 163 7
a 163 150 7
a 150 151 3
a 151 150 3
a 151 152 5
a 152 151 5
a 152 165 3
a 165 152 3
a 152 153 1
a 153 152 1
a 153 154 10
a 154 153 10
a 154 155 6
a 155 154 6
a 155 168 4
a 168 155 4
a 155 156 10
a 156 155 10
a 156 169 6
a 169 156 6
a 157 158 9
a 158 157 9
a 158 159 1
a 159 158 1
a 159 160 1
a 160 159 1
a 160 161 10
a 161 160 10
a 161 162 10
a 162 161 10
a 162 163 7
a 163 162 7
a 168 169 1
a 169 168 1
